Problem:    
Rows:       192
Columns:    65 (48 integer, 48 binary)
Non-zeros:  752
Status:     INTEGER OPTIMAL
Objective:  value = 99.822526 (MINimum)

   No.   Row name        Activity     Lower bound   Upper bound
------ ------------    ------------- ------------- -------------
     1 r.5                   1099.82             0               
     2 r.6                  -966.418      -986.823               
     3 r.7                   99.8225             0               
     4 r.8                  -951.395        -971.8               
     5 r.9                   99.8225             0               
     6 r.10                  -976.04      -989.417               
     7 r.11                  1099.82             0               
     8 r.12                 -966.348      -979.725               
     9 r.13                  1099.82             0               
    10 r.14                 -980.793       -991.26               
    11 r.15                  99.8225             0               
    12 r.16                  35.9068      -982.391               
    13 r.17                  99.8225             0               
    14 r.18                  13.8653      -998.431               
    15 r.19                  1099.82             0               
    16 r.20                 -987.059      -996.371               
    17 r.21                  1099.82             0               
    18 r.22                 -990.732      -993.414               
    19 r.23                  99.8225             0               
    20 r.24                  21.5317      -985.519               
    21 r.25                  1099.82             0               
    22 r.26                 -998.295      -998.295               
    23 r.27                  99.8225             0               
    24 r.28                  3.55448      -982.091               
    25 r.29                  99.8225             0               
    26 r.30                  99.8225      -986.422               
    27 r.31                  1099.82             0               
    28 r.32                 -900.177      -981.309               
    29 r.33                  1099.82             0               
    30 r.34                 -900.177      -934.957               
    31 r.35                  99.8225             0               
    32 r.36                  99.8225      -853.982               
    33 r.37                        1             1             = 
    34 r.38                        1             1             = 
    35 r.39                        1             1             = 
    36 r.40                        1             1             = 
    37 r.41                        1             1             = 
    38 r.42                        1             1             = 
    39 r.43                        1             1             = 
    40 r.44                        1             1             = 
    41 r.45                     1001             2               
    42 r.46                    -1001         -1001               
    43 r.47                  989.181      -989.417               
    44 r.48                     1001             2               
    45 r.49                    -1001         -1001               
    46 r.50                  2986.17      -979.725               
    47 r.51                        2             2               
    48 r.52                       -2         -1001               
    49 r.53                 -15.5729       -991.26               
    50 r.54                     1000             2               
    51 r.55                    -1000         -1001               
    52 r.56                  2988.43      -982.391               
    53 r.57                 -979.795      -986.823               
    54 r.58                 -964.772        -971.8               
    55 r.59                 -979.795      -986.823               
    56 r.60                 -964.772        -971.8               
    57 r.61                 -976.885      -986.823               
    58 r.62                 -961.861        -971.8               
    59 r.63                 -986.823      -986.823               
    60 r.64                   -971.8        -971.8               
    61 r.65                   65.043      -986.422               
    62 r.66                 -934.957      -981.309               
    63 r.67                  1052.35      -986.422               
    64 r.68                  52.3451      -981.309               
    65 r.69                 -934.957      -934.957               
    66 r.70                   65.043      -853.982               
    67 r.71                  52.3451      -934.957               
    68 r.72                  1052.35      -853.982               
    69 r.73                     1001             2               
    70 r.74                    -1001         -1001               
    71 r.75                  3010.82       13.1772               
    72 r.76                     1001             2               
    73 r.77                    -1001         -1001               
    74 r.78                  1013.83       28.2003               
    75 r.79                     1001             2               
    76 r.80                    -1001         -1001               
    77 r.81                  2996.44       -991.26               
    78 r.82                     1001             2               
    79 r.83                    -1001         -1001               
    80 r.84                  2001.13      -982.391               
    81 r.85                 -989.417      -989.417               
    82 r.86                 -979.725      -979.725               
    83 r.87                 -989.417      -989.417               
    84 r.88                 -979.725      -979.725               
    85 r.89                     1001             2               
    86 r.90                    -1001         -1001               
    87 r.91                  2986.51      -993.414               
    88 r.92                     1001             2               
    89 r.93                    -1001         -1001               
    90 r.94                  1986.75      -985.519               
    91 r.95                 -978.722      -989.417               
    92 r.96                  -969.03      -979.725               
    93 r.97                 -978.722      -989.417               
    94 r.98                  -969.03      -979.725               
    95 r.99                  1077.06      -986.422               
    96 r.100                 77.0603      -981.309               
    97 r.101                  65.043      -986.422               
    98 r.102                -934.957      -981.309               
    99 r.103                 77.0603      -934.957               
   100 r.104                 1077.06      -853.982               
   101 r.105                -934.957      -934.957               
   102 r.106                  65.043      -853.982               
   103 r.107                       2             2               
   104 r.108                      -2         -1001               
   105 r.109                 13.1772       13.1772               
   106 r.110                    1000             2               
   107 r.111                   -1000         -1001               
   108 r.112                 1013.83       28.2003               
   109 r.113                    1001             2               
   110 r.114                   -1001         -1001               
   111 r.115                 1003.56       10.5831               
   112 r.116                    1001             2               
   113 r.117                   -1001         -1001               
   114 r.118                 1998.87       20.2752               
   115 r.119                    1001             2               
   116 r.120                   -1001         -1001               
   117 r.121                 1993.46      -998.431               
   118 r.122                    1001             2               
   119 r.123                   -1001         -1001               
   120 r.124                 1978.16      -996.371               
   121 r.125                       2             2               
   122 r.126                      -2         -1001               
   123 r.127                -11.1361      -993.414               
   124 r.128                    1000             2               
   125 r.129                   -1000         -1001               
   126 r.130                 1986.75      -985.519               
   127 r.131                -983.475       -991.26               
   128 r.132                 33.2248      -982.391               
   129 r.133                -983.475       -991.26               
   130 r.134                 33.2248      -982.391               
   131 r.135                 79.4181      -986.422               
   132 r.136                -920.582      -981.309               
   133 r.137                  65.043      -986.422               
   134 r.138                -934.957      -981.309               
   135 r.139                -920.582      -934.957               
   136 r.140                 79.4181      -853.982               
   137 r.141                -934.957      -934.957               
   138 r.142                  65.043      -853.982               
   139 r.143                    1001             2               
   140 r.144                   -1001         -1001               
   141 r.145                 2005.83        8.7404               
   142 r.146                    1001             2               
   143 r.147                   -1001         -1001               
   144 r.148                 2022.53       17.6087               
   145 r.149                    1001             2               
   146 r.150                   -1001         -1001               
   147 r.151                 1995.89      -993.414               
   148 r.152                    1001             2               
   149 r.153                   -1001         -1001               
   150 r.154                 2008.15      -985.519               
   151 r.155                 11.1834      -998.431               
   152 r.156                -989.741      -996.371               
   153 r.157                 11.1834      -998.431               
   154 r.158                -989.741      -996.371               
   155 r.159                    1001             2               
   156 r.160                   -1001         -1001               
   157 r.161                 1013.49       10.5831               
   158 r.162                    1001             2               
   159 r.163                   -1001         -1001               
   160 r.164                 2013.25       20.2752               
   161 r.165                       2             2               
   162 r.166                      -2         -1001               
   163 r.167                  8.7404        8.7404               
   164 r.168                    1000             2               
   165 r.169                   -1000         -1001               
   166 r.170                  2015.5       17.6087               
   167 r.171                    1001             2               
   168 r.172                   -1001         -1001               
   169 r.173                  2003.4         1.569               
   170 r.174                    1001             2               
   171 r.175                   -1001         -1001               
   172 r.176                 1992.54       3.62894               
   173 r.177                -993.414      -993.414               
   174 r.178                 18.8498      -985.519               
   175 r.179                -993.414      -993.414               
   176 r.180                 18.8498      -985.519               
   177 r.181                 89.3563      -986.422               
   178 r.182                -910.644      -981.309               
   179 r.183                 79.4181      -986.422               
   180 r.184                -920.582      -981.309               
   181 r.185                    1001             2               
   182 r.186                   -1001         -1001               
   183 r.187                    2000      -934.957               
   184 r.188                    1001             2               
   185 r.189                   -1001         -1001               
   186 r.190                    2000      -853.982               
   187 r.191                    1001             2               
   188 r.192                   -1001         -1001               
   189 r.193                    2000       13.5779               
   190 r.194                    1001             2               
   191 r.195                   -1001         -1001               
   192 r.196                    2000       18.6909               

   No. Column name       Activity     Lower bound   Upper bound
------ ------------    ------------- ------------- -------------
     1 tt                    99.8225             0               
     2 s_1_1        *              1             0             1 
     3 t_1_1                  65.043             0               
     4 s_1_7        *              0             0             1 
     5 s_1_8        *              1             0             1 
     6 s_2_1        *              0             0             1 
     7 t_2_1                 1052.35             0               
     8 s_2_7        *              1             0             1 
     9 s_2_8        *              0             0             1 
    10 s_1_2        *              0             0             1 
    11 t_1_2                 1077.06             0               
    12 s_2_2        *              1             0             1 
    13 t_2_2                  65.043             0               
    14 s_1_3        *              1             0             1 
    15 t_1_3                 79.4181             0               
    16 s_2_3        *              0             0             1 
    17 t_2_3                  65.043             0               
    18 s_1_4        *              0             0             1 
    19 t_1_4                 86.4455             0               
    20 s_2_4        *              1             0             1 
    21 t_2_4                 86.4455             0               
    22 s_1_5        *              1             0             1 
    23 t_1_5                 89.3563             0               
    24 s_2_5        *              0             0             1 
    25 t_2_5                 79.4181             0               
    26 s_1_6        *              1             0             1 
    27 t_1_6                 97.1406             0               
    28 s_2_6        *              0             0             1 
    29 t_2_6                 97.1406             0               
    30 t_1_7                       0             0               
    31 t_2_7                       0             0               
    32 t_1_8                       0             0               
    33 t_2_8                       0             0               
    34 r_1_1_2      *              1             0             1 
    35 u_1_1_2      *              0             0             1 
    36 r_2_1_2      *              1             0             1 
    37 u_2_1_2      *              0             0             1 
    38 r_1_1_3      *              0             0             1 
    39 u_1_1_3      *              0             0             1 
    40 r_2_1_3      *              1             0             1 
    41 u_2_1_3      *              0             0             1 
    42 r_1_2_3      *              1             0             1 
    43 u_1_2_3      *              0             0             1 
    44 r_2_2_3      *              1             0             1 
    45 u_2_2_3      *              0             0             1 
    46 r_1_2_5      *              1             0             1 
    47 u_1_2_5      *              0             0             1 
    48 r_2_2_5      *              1             0             1 
    49 u_2_2_5      *              0             0             1 
    50 r_1_3_4      *              1             0             1 
    51 u_1_3_4      *              0             0             1 
    52 r_2_3_4      *              1             0             1 
    53 u_2_3_4      *              0             0             1 
    54 r_1_3_5      *              0             0             1 
    55 u_1_3_5      *              0             0             1 
    56 r_2_3_5      *              1             0             1 
    57 u_2_3_5      *              0             0             1 
    58 r_1_4_5      *              1             0             1 
    59 u_1_4_5      *              0             0             1 
    60 r_2_4_5      *              1             0             1 
    61 u_2_4_5      *              0             0             1 
    62 r_1_7_8      *              1             0             1 
    63 u_1_7_8      *              0             0             1 
    64 r_2_7_8      *              1             0             1 
    65 u_2_7_8      *              0             0             1 

Integer feasibility conditions:

KKT.PE: max.abs.err = 4.55e-13 on row 77
        max.rel.err = 1.09e-16 on row 172
        High quality

KKT.PB: max.abs.err = 5.33e-15 on row 163
        max.rel.err = 5.47e-16 on row 163
        High quality

End of output
